************************************************************************
file with basedata            : md354_.bas
initial value random generator: 21596
************************************************************************
projects                      :  1
jobs (incl. supersource/sink ):  22
horizon                       :  167
RESOURCES
  - renewable                 :  2   R
  - nonrenewable              :  2   N
  - doubly constrained        :  0   D
************************************************************************
PROJECT INFORMATION:
pronr.  #jobs rel.date duedate tardcost  MPM-Time
    1     20      0       34        1       34
************************************************************************
PRECEDENCE RELATIONS:
jobnr.    #modes  #successors   successors
   1        1          3           2   3   4
   2        3          3           5   6   7
   3        3          3           8  10  15
   4        3          3           6  15  18
   5        3          3           9  13  14
   6        3          3          13  17  20
   7        3          3          10  11  15
   8        3          1          11
   9        3          1          16
  10        3          1          12
  11        3          2          14  17
  12        3          2          17  19
  13        3          1          19
  14        3          1          16
  15        3          2          20  21
  16        3          2          18  21
  17        3          1          21
  18        3          2          19  20
  19        3          1          22
  20        3          1          22
  21        3          1          22
  22        1          0        
************************************************************************
REQUESTS/DURATIONS:
jobnr. mode duration  R 1  R 2  N 1  N 2
------------------------------------------------------------------------
  1      1     0       0    0    0    0
  2      1     1       3    0    3    3
         2     7       0    1    2    3
         3     8       2    0    1    2
  3      1     4       0    4    4    8
         2     6       8    0    4    8
         3     7       4    0    3    5
  4      1     2       0    3    3    4
         2     3       0    2    3    4
         3     5       0    1    2    4
  5      1     1       0    7    7    5
         2     6       0    2    5    2
         3     6       8    0    6    2
  6      1     6       0    7    9    7
         2     8       0    7    5    4
         3     9       0    7    3    2
  7      1     1       0    6    7    5
         2    10       0    5    5    4
         3    10       6    0    6    4
  8      1     1       8    0    8    4
         2     5       0   10    6    4
         3    10       7    0    2    3
  9      1     5       7    0    7   10
         2     5       8    0   10    9
         3     6       0    6    2    8
 10      1     1       2    0    7    6
         2     2       0    9    6    3
         3     9       0    7    6    1
 11      1     2       0    4    6    8
         2     5       6    0    5    5
         3     8       0    4    3    2
 12      1     2       6    0    6    6
         2     5       4    0    6    5
         3     8       4    0    5    4
 13      1     1       0    5    8    8
         2     9       0    5    5    8
         3    10       0    5    1    5
 14      1     8       0    8    7    6
         2     9      10    0    5    3
         3     9       0    7    6    6
 15      1     7       0    9    5    5
         2     9       0    9    4    4
         3    10       3    0    2    3
 16      1     6       0    6   10   10
         2     9       0    3    7    8
         3    10       9    0    7    4
 17      1     5       0    6    7    4
         2     7       0    5    3    3
         3    10       5    0    1    2
 18      1     9       3    0    8    8
         2     9       0    7    8    9
         3    10       3    0    5    8
 19      1     2       3    0    9    7
         2     5       0    5    8    5
         3     7       2    0    7    1
 20      1     4       2    0    5    7
         2     4       0    6    5    8
         3     6       0    5    4    6
 21      1     7       0    6    4    6
         2     7       2    0    4    6
         3     9       0    6    3    5
 22      1     0       0    0    0    0
************************************************************************
RESOURCEAVAILABILITIES:
  R 1  R 2  N 1  N 2
   13   24   87   88
************************************************************************
MAXIMAL LAGS:
from  to  type  delay
    1   22   ES      0
    1    2   ES      0
    2   22   ES      0
    1    3   ES      0
    3   22   ES      0
    1    4   ES      0
    4   22   ES      0
    1    5   ES      0
    5   22   ES      0
    1    6   ES      0
    6   22   ES      0
    1    7   ES      0
    7   22   ES      0
    1    8   ES      0
    8   22   ES      0
    1    9   ES      0
    9   22   ES      0
    1   10   ES      0
   10   22   ES      0
    1   11   ES      0
   11   22   ES      0
    1   12   ES      0
   12   22   ES      0
    1   13   ES      0
   13   22   ES      0
    1   14   ES      0
   14   22   ES      0
    1   15   ES      0
   15   22   ES      0
    1   16   ES      0
   16   22   ES      0
    1   17   ES      0
   17   22   ES      0
    1   18   ES      0
   18   22   ES      0
    1   19   ES      0
   19   22   ES      0
    1   20   ES      0
   20   22   ES      0
    1   21   ES      0
   21   22   ES      0
    1   22   ES      0
    2    5   SS      0
    2    5   SE      8
    2    5   ES     12
    2    5   EE      2
    2    6   SS    -12
    2    6   SE     -8
    2    6   ES     12
    2    6   EE     -3
    2    7   SS     -5
    2    7   SE      0
    2    7   ES     -2
    2    7   EE     -8
    3    8   SS     12
    3    8   SE     10
    3    8   ES     -3
    3    8   EE    -11
    3   10   SS     -1
    3   10   SE     -1
    3   10   ES     -5
    3   10   EE     10
    3   15   SS     12
    3   15   SE      1
    3   15   ES     -4
    3   15   EE      4
    4    6   SS     12
    4    6   SE    -10
    4    6   ES     10
    4    6   EE      5
    4   15   SS      2
    4   15   SE     -1
    4   15   ES     12
    4   15   EE     -4
    4   18   SS      9
    4   18   SE    -12
    4   18   ES     -5
    4   18   EE      0
    5    9   SS     10
    5    9   SE     -4
    5    9   ES      4
    5    9   EE      5
    5   13   SS     -8
    5   13   SE     -9
    5   13   ES     -1
    5   13   EE     10
    5   14   SS      6
    5   14   SE      2
    5   14   ES      3
    5   14   EE     -5
    6   13   SS      4
    6   13   SE     -1
    6   13   ES     -4
    6   13   EE     10
    6   17   SS      0
    6   17   SE      1
    6   17   ES     -8
    6   17   EE     -6
    6   20   SS     -8
    6   20   SE     -5
    6   20   ES      1
    6   20   EE    -11
    7   10   SS      0
    7   10   SE      0
    7   10   ES      2
    7   10   EE      7
    7   11   SS     12
    7   11   SE      7
    7   11   ES      4
    7   11   EE      1
    7   15   SS     -3
    7   15   SE      6
    7   15   ES    -10
    7   15   EE     -8
    8   11   SS     -1
    8   11   SE      6
    8   11   ES     -3
    8   11   EE      6
    9   16   SS      3
    9   16   SE      9
    9   16   ES     -7
    9   16   EE     -8
   10   12   SS     11
   10   12   SE    -11
   10   12   ES     -4
   10   12   EE     -7
   11   14   SS      7
   11   14   SE      4
   14   11   SE      0
   11   14   ES      0
   11   14   EE     -7
   11   17   SS     -7
   11   17   SE      1
   11   17   ES      6
   11   17   EE      7
   12   17   SS     -8
   12   17   SE    -12
   12   17   ES      0
   12   17   EE      1
   12   19   SS      0
   12   19   SE    -10
   12   19   ES      2
   12   19   EE      6
   13   19   SS      6
   13   19   SE      1
   13   19   ES     -7
   13   19   EE     -6
   14   16   SS     -1
   14   16   SE      0
   14   16   ES      7
   14   16   EE      6
   15   20   SS      7
   15   20   SE      9
   15   20   ES     -8
   15   20   EE      6
   15   21   SS     11
   15   21   SE      7
   15   21   ES     11
   15   21   EE      5
   16   18   SS     -5
   16   18   SE     -6
   16   18   ES     -2
   16   18   EE     12
   16   21   SS      5
   16   21   SE     11
   16   21   ES      3
   16   21   EE      0
   17   21   SS      5
   17   21   SE      4
   17   21   ES      2
   17   21   EE     10
   18   19   SS      3
   18   19   SE      2
   18   19   ES      7
   18   19   EE     -7
   18   20   SS     -1
   18   20   SE     12
   18   20   ES      1
   18   20   EE    -12
************************************************************************
